c A SAT instance generated from a 3-CNF formula that had 33 clauses and 11 variables
p cnf 11 33
10 2 -6 0
-6 5 -4 0
-3 -1 9 0
5 -7 -4 0
-6 -4 -7 0
1 11 -2 0
-8 9 6 0
3 2 9 0
-10 8 -9 0
5 3 6 0
-9 6 2 0
-10 -4 -8 0
6 -5 -4 0
4 1 5 0
-9 -3 4 0
-2 -9 1 0
4 9 -10 0
-1 9 -10 0
-11 -10 -7 0
-9 10 1 0
10 -6 -11 0
8 11 -3 0
8 -2 9 0
6 -4 -3 0
-10 8 -11 0
-10 -3 -9 0
-11 8 4 0
-2 -7 -9 0
-3 8 -5 0
4 9 -11 0
8 -5 2 0
6 4 -9 0
-7 -5 -10 0
